classes/MathDec/2019-2020/path/10_2020-04-02/minizinc-problems/TSP/TSP.dzn
N = 4;

D=[| 0, 1,  7, 5,
   | 2, 0,  1, 3,
   | 9, 10, 0, 1,
   | 1, 6,  4, 0 |];
    
B = 5;